c output.enc
c
p cnf 155 20 
c =========  rule 1  ============
-43 44 34 2 0
-29 30 18 2 0
-47 48 34 2 0
-15 16 4 2 0
-31 32 18 2 0
-37 38 34 2 0
-39 40 34 2 0
-7 8 4 2 0
-21 22 18 2 0
-1 2 0
-13 14 4 2 0
-19 20 18 2 0
-3 4 2 0
-41 42 34 2 0
-49 50 34 2 0
-5 6 4 2 0
-45 46 34 2 0
-35 36 34 2 0
-17 18 2 0
-33 34 2 0
c =========  rule 2  ============
-7 54 55 56 83 118 0
-45 61 64 67 88 91 94 97 100 103 124 127 130 133 136 139 141 142 143 144 145 146 0
-31 77 111 112 113 154 0
-13 69 70 71 72 73 74 105 106 107 110 147 148 149 151 0
-15 75 76 77 112 154 0
-43 62 65 68 89 92 95 96 97 98 99 100 101 102 103 104 125 128 131 132 133 134 135 136 137 138 139 140 143 146 0
-47 69 70 71 74 105 106 107 110 147 148 149 150 151 152 0
-19 52 78 79 80 115 0
-37 56 83 117 118 119 0
-39 57 58 59 84 85 86 120 121 122 0
-49 77 113 153 154 155 0
-35 53 80 114 115 116 0
-21 55 81 82 83 118 0
-5 51 52 53 80 115 0
-29 69 70 71 73 105 106 107 108 109 110 147 148 149 151 0
-41 60 61 62 63 64 65 66 67 68 87 88 89 90 91 92 93 94 95 97 100 103 123 124 125 126 127 128 129 130 131 133 136 139 143 146 0
c =========  rule 3  ============
-51 5 0
-51 -19 0
-51 -35 0
-52 5 0
-52 19 0
-52 -35 0
-53 5 0
-53 35 0
-53 -19 0
-54 7 0
-54 -21 0
-54 -37 0
-55 7 0
-55 21 0
-55 -37 0
-56 7 0
-56 37 0
-56 -21 0
-57 39 0
-58 39 0
-59 39 0
-60 41 0
-60 -43 0
-60 -45 0
-61 41 0
-61 45 0
-61 -43 0
-62 41 0
-62 43 0
-62 -45 0
-63 41 0
-63 -43 0
-63 -45 0
-64 41 0
-64 45 0
-64 -43 0
-65 41 0
-65 43 0
-65 -45 0
-66 41 0
-66 -43 0
-66 -45 0
-67 41 0
-67 45 0
-67 -43 0
-68 41 0
-68 43 0
-68 -45 0
-69 13 0
-69 29 0
-69 47 0
-70 13 0
-70 29 0
-70 47 0
-71 13 0
-71 29 0
-71 47 0
-72 13 0
-72 -29 0
-72 -47 0
-73 13 0
-73 29 0
-73 -47 0
-74 13 0
-74 47 0
-74 -29 0
-75 15 0
-75 -31 0
-75 -49 0
-76 15 0
-76 -31 0
-76 -49 0
-77 15 0
-77 31 0
-77 49 0
-78 19 0
-78 -5 0
-78 -35 0
-79 19 0
-79 -5 0
-79 -35 0
-80 5 0
-80 19 0
-80 35 0
-81 21 0
-81 -7 0
-81 -37 0
-82 21 0
-82 -7 0
-82 -37 0
-83 7 0
-83 21 0
-83 37 0
-84 39 0
-85 39 0
-86 39 0
-87 41 0
-87 -43 0
-87 -45 0
-88 41 0
-88 45 0
-88 -43 0
-89 41 0
-89 43 0
-89 -45 0
-90 41 0
-90 -43 0
-90 -45 0
-91 41 0
-91 45 0
-91 -43 0
-92 41 0
-92 43 0
-92 -45 0
-93 41 0
-93 -43 0
-93 -45 0
-94 41 0
-94 45 0
-94 -43 0
-95 41 0
-95 43 0
-95 -45 0
-96 43 0
-96 -41 0
-96 -45 0
-97 41 0
-97 43 0
-97 45 0
-98 43 0
-98 -41 0
-98 -45 0
-99 43 0
-99 -41 0
-99 -45 0
-100 41 0
-100 43 0
-100 45 0
-101 43 0
-101 -41 0
-101 -45 0
-102 43 0
-102 -41 0
-102 -45 0
-103 41 0
-103 43 0
-103 45 0
-104 43 0
-104 -41 0
-104 -45 0
-105 13 0
-105 29 0
-105 47 0
-106 13 0
-106 29 0
-106 47 0
-107 13 0
-107 29 0
-107 47 0
-108 29 0
-108 -13 0
-108 -47 0
-109 29 0
-109 -13 0
-109 -47 0
-110 13 0
-110 29 0
-110 47 0
-111 31 0
-111 -15 0
-111 -49 0
-112 15 0
-112 31 0
-112 -49 0
-113 31 0
-113 49 0
-113 -15 0
-114 35 0
-114 -5 0
-114 -19 0
-115 5 0
-115 19 0
-115 35 0
-116 35 0
-116 -5 0
-116 -19 0
-117 37 0
-117 -7 0
-117 -21 0
-118 7 0
-118 21 0
-118 37 0
-119 37 0
-119 -7 0
-119 -21 0
-120 39 0
-121 39 0
-122 39 0
-123 41 0
-123 -43 0
-123 -45 0
-124 41 0
-124 45 0
-124 -43 0
-125 41 0
-125 43 0
-125 -45 0
-126 41 0
-126 -43 0
-126 -45 0
-127 41 0
-127 45 0
-127 -43 0
-128 41 0
-128 43 0
-128 -45 0
-129 41 0
-129 -43 0
-129 -45 0
-130 41 0
-130 45 0
-130 -43 0
-131 41 0
-131 43 0
-131 -45 0
-132 43 0
-132 -41 0
-132 -45 0
-133 41 0
-133 43 0
-133 45 0
-134 43 0
-134 -41 0
-134 -45 0
-135 43 0
-135 -41 0
-135 -45 0
-136 41 0
-136 43 0
-136 45 0
-137 43 0
-137 -41 0
-137 -45 0
-138 43 0
-138 -41 0
-138 -45 0
-139 41 0
-139 43 0
-139 45 0
-140 43 0
-140 -41 0
-140 -45 0
-141 45 0
-141 -41 0
-141 -43 0
-142 45 0
-142 -41 0
-142 -43 0
-143 41 0
-143 43 0
-143 45 0
-144 45 0
-144 -41 0
-144 -43 0
-145 45 0
-145 -41 0
-145 -43 0
-146 41 0
-146 43 0
-146 45 0
-147 13 0
-147 29 0
-147 47 0
-148 13 0
-148 29 0
-148 47 0
-149 13 0
-149 29 0
-149 47 0
-150 47 0
-150 -13 0
-150 -29 0
-151 13 0
-151 29 0
-151 47 0
-152 47 0
-152 -13 0
-152 -29 0
-153 49 0
-153 -15 0
-153 -31 0
-154 15 0
-154 31 0
-154 49 0
-155 49 0
-155 -15 0
-155 -31 0
